param n := 120;
param c := 3000
param : V : p w :=
   0	 443	 433
   1	 270	 260
   2	 317	 307
   3	 503	 493
   4	 262	 252
   5	 265	 255
   6	 425	 415
   7	 290	 280
   8	 315	 305
   9	 467	 457
  10	 263	 253
  11	 300	 290
  12	 501	 491
  13	 261	 251
  14	 268	 258
  15	 385	 375
  16	 264	 254
  17	 381	 371
  18	 412	 402
  19	 299	 289
  20	 319	 309
  21	 420	 410
  22	 285	 275
  23	 325	 315
  24	 403	 393
  25	 285	 275
  26	 342	 332
  27	 472	 462
  28	 269	 259
  29	 289	 279
  30	 424	 414
  31	 264	 254
  32	 342	 332
  33	 365	 355
  34	 322	 312
  35	 343	 333
  36	 484	 474
  37	 268	 258
  38	 278	 268
  39	 430	 420
  40	 292	 282
  41	 308	 298
  42	 463	 453
  43	 282	 272
  44	 285	 275
  45	 418	 408
  46	 299	 289
  47	 313	 303
  48	 421	 411
  49	 270	 260
  50	 339	 329
  51	 373	 363
  52	 313	 303
  53	 344	 334
  54	 457	 447
  55	 265	 255
  56	 308	 298
  57	 481	 471
  58	 266	 256
  59	 283	 273
  60	 509	 499
  61	 260	 250
  62	 261	 251
  63	 434	 424
  64	 287	 277
  65	 309	 299
  66	 475	 465
  67	 267	 257
  68	 288	 278
  69	 383	 373
  70	 279	 269
  71	 368	 358
  72	 504	 494
  73	 260	 250
  74	 266	 256
  75	 423	 413
  76	 291	 281
  77	 316	 306
  78	 472	 462
  79	 267	 257
  80	 291	 281
  81	 445	 435
  82	 290	 280
  83	 295	 285
  84	 490	 480
  85	 260	 250
  86	 280	 270
  87	 399	 389
  88	 281	 271
  89	 350	 340
  90	 472	 462
  91	 264	 254
  92	 294	 284
  93	 479	 469
  94	 269	 259
  95	 282	 272
  96	 361	 351
  97	 301	 291
  98	 368	 358
  99	 399	 389
 100	 278	 268
 101	 353	 343
 102	 393	 383
 103	 292	 282
 104	 345	 335
 105	 404	 394
 106	 298	 288
 107	 328	 318
 108	 403	 393
 109	 268	 258
 110	 359	 349
 111	 492	 482
 112	 267	 257
 113	 271	 261
 114	 373	 363
 115	 292	 282
 116	 365	 355
 117	 433	 423
 118	 274	 264
 119	 323	 313
;

set E :=
   0	   4
   0	   7
   0	  18
   0	  24
   0	  25
   0	  27
   0	  28
   0	  29
   0	  30
   0	  35
   0	  45
   0	  47
   0	  48
   0	  49
   0	  55
   0	  57
   0	  59
   0	  65
   0	  69
   0	  72
   0	  74
   0	  78
   0	  79
   0	  84
   0	  87
   0	  89
   0	  90
   0	  91
   0	  97
   0	 100
   0	 106
   0	 108
   0	 109
   0	 113
   0	 118
   0	 119
   1	   2
   1	   5
   1	   8
   1	  14
   1	  15
   1	  16
   1	  23
   1	  24
   1	  26
   1	  35
   1	  36
   1	  40
   1	  42
   1	  44
   1	  50
   1	  52
   1	  55
   1	  57
   1	  60
   1	  66
   1	  67
   1	  68
   1	  73
   1	  84
   1	  93
   1	  95
   1	  96
   1	  99
   1	 101
   1	 103
   1	 104
   1	 105
   1	 110
   1	 114
   1	 117
   2	   5
   2	  11
   2	  14
   2	  15
   2	  18
   2	  20
   2	  21
   2	  22
   2	  23
   2	  24
   2	  27
   2	  28
   2	  29
   2	  32
   2	  41
   2	  44
   2	  48
   2	  49
   2	  56
   2	  63
   2	  64
   2	  66
   2	  67
   2	  68
   2	  71
   2	  74
   2	  76
   2	  78
   2	  85
   2	  90
   2	  99
   2	 100
   2	 102
   2	 105
   2	 112
   2	 116
   2	 117
   2	 119
   3	   4
   3	   5
   3	   6
   3	   8
   3	  13
   3	  14
   3	  16
   3	  19
   3	  24
   3	  27
   3	  29
   3	  30
   3	  33
   3	  36
   3	  39
   3	  43
   3	  44
   3	  49
   3	  58
   3	  60
   3	  61
   3	  62
   3	  63
   3	  64
   3	  66
   3	  67
   3	  69
   3	  71
   3	  72
   3	  73
   3	  75
   3	  83
   3	  84
   3	  88
   3	  89
   3	  93
   3	  98
   3	  99
   3	 101
   3	 104
   3	 108
   4	  12
   4	  13
   4	  14
   4	  17
   4	  27
   4	  29
   4	  30
   4	  36
   4	  38
   4	  42
   4	  43
   4	  51
   4	  63
   4	  66
   4	  72
   4	  75
   4	  76
   4	  77
   4	  79
   4	  81
   4	  82
   4	  84
   4	  85
   4	  87
   4	  89
   4	  98
   4	 100
   4	 105
   4	 106
   4	 108
   4	 109
   4	 112
   4	 115
   4	 117
   5	   8
   5	  10
   5	  18
   5	  19
   5	  21
   5	  23
   5	  24
   5	  27
   5	  32
   5	  33
   5	  38
   5	  39
   5	  40
   5	  41
   5	  43
   5	  46
   5	  50
   5	  55
   5	  64
   5	  66
   5	  67
   5	  68
   5	  77
   5	  81
   5	  82
   5	  83
   5	  92
   5	  94
   5	  97
   5	 100
   5	 101
   5	 104
   5	 105
   5	 106
   5	 119
   6	   7
   6	   9
   6	  11
   6	  14
   6	  21
   6	  34
   6	  35
   6	  36
   6	  38
   6	  43
   6	  46
   6	  50
   6	  52
   6	  56
   6	  64
   6	  66
   6	  67
   6	  69
   6	  70
   6	  74
   6	  87
   6	  90
   6	  91
   6	  92
   6	  93
   6	  95
   6	  98
   6	 101
   6	 105
   6	 109
   6	 113
   6	 114
   6	 115
   7	   8
   7	   9
   7	  12
   7	  16
   7	  24
   7	  28
   7	  31
   7	  34
   7	  38
   7	  45
   7	  50
   7	  53
   7	  65
   7	  67
   7	  70
   7	  74
   7	  75
   7	  84
   7	  86
   7	  88
   7	  90
   7	  93
   7	  96
   7	  98
   7	 102
   7	 110
   7	 117
   8	   9
   8	  10
   8	  19
   8	  21
   8	  22
   8	  24
   8	  25
   8	  28
   8	  33
   8	  35
   8	  37
   8	  40
   8	  41
   8	  42
   8	  57
   8	  59
   8	  60
   8	  64
   8	  67
   8	  70
   8	  74
   8	  76
   8	  77
   8	  81
   8	  86
   8	  89
   8	  90
   8	  93
   8	  96
   8	  97
   8	  98
   8	 106
   8	 111
   8	 112
   8	 118
   9	  10
   9	  11
   9	  13
   9	  14
   9	  21
   9	  23
   9	  24
   9	  28
   9	  33
   9	  34
   9	  35
   9	  39
   9	  40
   9	  41
   9	  44
   9	  45
   9	  46
   9	  47
   9	  51
   9	  52
   9	  54
   9	  56
   9	  59
   9	  60
   9	  63
   9	  67
   9	  68
   9	  69
   9	  75
   9	  76
   9	  79
   9	  80
   9	  87
   9	  88
   9	  93
   9	  97
   9	  98
   9	 101
   9	 102
   9	 105
   9	 109
   9	 110
   9	 119
  10	  13
  10	  20
  10	  23
  10	  26
  10	  28
  10	  43
  10	  47
  10	  53
  10	  56
  10	  60
  10	  61
  10	  68
  10	  69
  10	  70
  10	  71
  10	  72
  10	  73
  10	  76
  10	  82
  10	  83
  10	  89
  10	  91
  10	  92
  10	  96
  10	 117
  11	  12
  11	  15
  11	  17
  11	  19
  11	  22
  11	  27
  11	  28
  11	  29
  11	  31
  11	  32
  11	  36
  11	  37
  11	  38
  11	  41
  11	  42
  11	  44
  11	  48
  11	  52
  11	  61
  11	  66
  11	  68
  11	  71
  11	  72
  11	  73
  11	  77
  11	  81
  11	  86
  11	  88
  11	  89
  11	  92
  11	  93
  11	 107
  11	 110
  11	 111
  11	 113
  11	 115
  11	 118
  11	 119
  12	  13
  12	  14
  12	  15
  12	  18
  12	  19
  12	  20
  12	  21
  12	  27
  12	  29
  12	  35
  12	  49
  12	  59
  12	  60
  12	  61
  12	  66
  12	  73
  12	  78
  12	  81
  12	  82
  12	  83
  12	  84
  12	  85
  12	  88
  12	  93
  12	  97
  12	 104
  12	 107
  12	 108
  12	 109
  12	 110
  12	 111
  12	 116
  12	 118
  13	  16
  13	  19
  13	  20
  13	  24
  13	  25
  13	  33
  13	  39
  13	  40
  13	  42
  13	  44
  13	  47
  13	  48
  13	  49
  13	  51
  13	  58
  13	  60
  13	  64
  13	  66
  13	  69
  13	  71
  13	  72
  13	  73
  13	  74
  13	  77
  13	  80
  13	  81
  13	  83
  13	  86
  13	  89
  13	  92
  13	  93
  13	  95
  13	  97
  13	 101
  13	 104
  13	 106
  13	 111
  13	 112
  13	 113
  13	 115
  13	 119
  14	  16
  14	  18
  14	  20
  14	  22
  14	  25
  14	  26
  14	  27
  14	  32
  14	  33
  14	  34
  14	  39
  14	  40
  14	  43
  14	  45
  14	  47
  14	  52
  14	  56
  14	  63
  14	  65
  14	  76
  14	  79
  14	  80
  14	  90
  14	  91
  14	  92
  14	  93
  14	  95
  14	  97
  14	  98
  14	 115
  14	 116
  15	  19
  15	  21
  15	  32
  15	  36
  15	  37
  15	  38
  15	  39
  15	  42
  15	  43
  15	  45
  15	  55
  15	  57
  15	  66
  15	  69
  15	  71
  15	  75
  15	  76
  15	  78
  15	  81
  15	  89
  15	  92
  15	  99
  15	 100
  15	 102
  15	 104
  15	 106
  15	 110
  15	 111
  15	 114
  15	 118
  15	 119
  16	  17
  16	  19
  16	  20
  16	  28
  16	  32
  16	  40
  16	  42
  16	  43
  16	  53
  16	  54
  16	  59
  16	  60
  16	  63
  16	  68
  16	  70
  16	  71
  16	  73
  16	  76
  16	  81
  16	  83
  16	  85
  16	  89
  16	  93
  16	  96
  16	  97
  16	 108
  16	 110
  16	 114
  16	 117
  16	 119
  17	  31
  17	  32
  17	  36
  17	  42
  17	  45
  17	  50
  17	  51
  17	  53
  17	  59
  17	  60
  17	  63
  17	  66
  17	  73
  17	  75
  17	  82
  17	  83
  17	  88
  17	  90
  17	  94
  17	  95
  17	  97
  17	 100
  17	 102
  17	 103
  17	 109
  17	 113
  17	 114
  18	  20
  18	  21
  18	  26
  18	  29
  18	  31
  18	  36
  18	  44
  18	  45
  18	  50
  18	  54
  18	  61
  18	  65
  18	  67
  18	  72
  18	  74
  18	  77
  18	  78
  18	  79
  18	  81
  18	  86
  18	  87
  18	  93
  18	  96
  18	  98
  18	  99
  18	 106
  18	 111
  18	 112
  18	 115
  18	 116
  19	  28
  19	  30
  19	  36
  19	  37
  19	  38
  19	  39
  19	  44
  19	  48
  19	  51
  19	  53
  19	  54
  19	  55
  19	  60
  19	  63
  19	  64
  19	  68
  19	  69
  19	  71
  19	  72
  19	  74
  19	  75
  19	  76
  19	  77
  19	  78
  19	  88
  19	  89
  19	  91
  19	  92
  19	  94
  19	 107
  19	 108
  19	 117
  19	 119
  20	  21
  20	  31
  20	  36
  20	  44
  20	  45
  20	  48
  20	  51
  20	  52
  20	  54
  20	  57
  20	  58
  20	  59
  20	  64
  20	  66
  20	  75
  20	  80
  20	  82
  20	  85
  20	  86
  20	  91
  20	 104
  20	 106
  20	 110
  20	 113
  20	 115
  21	  28
  21	  30
  21	  31
  21	  33
  21	  36
  21	  37
  21	  42
  21	  44
  21	  51
  21	  55
  21	  58
  21	  74
  21	  75
  21	  81
  21	  94
  21	  97
  21	 100
  21	 101
  21	 102
  21	 103
  21	 104
  21	 119
  22	  28
  22	  31
  22	  34
  22	  35
  22	  37
  22	  40
  22	  43
  22	  44
  22	  48
  22	  49
  22	  51
  22	  52
  22	  53
  22	  55
  22	  56
  22	  64
  22	  69
  22	  72
  22	  73
  22	  77
  22	  85
  22	  89
  22	  90
  22	  94
  22	  99
  22	 101
  22	 103
  22	 105
  22	 106
  22	 109
  22	 111
  22	 112
  22	 118
  23	  25
  23	  34
  23	  35
  23	  36
  23	  40
  23	  42
  23	  44
  23	  48
  23	  52
  23	  53
  23	  56
  23	  61
  23	  65
  23	  69
  23	  75
  23	  80
  23	  85
  23	  91
  23	  93
  23	  96
  23	  98
  23	  99
  23	 104
  23	 106
  23	 110
  23	 112
  23	 114
  23	 117
  24	  28
  24	  29
  24	  37
  24	  38
  24	  39
  24	  45
  24	  49
  24	  52
  24	  56
  24	  58
  24	  66
  24	  67
  24	  71
  24	  74
  24	  79
  24	  86
  24	  97
  24	 102
  24	 103
  24	 106
  24	 114
  25	  27
  25	  31
  25	  35
  25	  40
  25	  41
  25	  44
  25	  45
  25	  47
  25	  49
  25	  51
  25	  54
  25	  56
  25	  61
  25	  62
  25	  67
  25	  74
  25	  91
  25	  95
  25	  96
  25	 100
  25	 105
  25	 109
  25	 117
  26	  27
  26	  29
  26	  34
  26	  39
  26	  43
  26	  50
  26	  55
  26	  59
  26	  62
  26	  66
  26	  68
  26	  73
  26	  81
  26	  82
  26	  83
  26	  91
  26	 100
  26	 102
  26	 103
  26	 104
  26	 107
  26	 114
  26	 119
  27	  30
  27	  31
  27	  32
  27	  36
  27	  40
  27	  42
  27	  43
  27	  51
  27	  53
  27	  55
  27	  62
  27	  65
  27	  72
  27	  73
  27	  74
  27	  76
  27	  77
  27	  78
  27	  81
  27	  82
  27	  89
  27	  91
  27	  97
  27	 102
  27	 104
  27	 107
  27	 109
  27	 110
  27	 115
  27	 118
  27	 119
  28	  31
  28	  33
  28	  34
  28	  37
  28	  38
  28	  40
  28	  44
  28	  45
  28	  50
  28	  53
  28	  55
  28	  56
  28	  60
  28	  62
  28	  64
  28	  65
  28	  68
  28	  69
  28	  72
  28	  73
  28	  74
  28	  76
  28	  80
  28	  81
  28	  84
  28	  90
  28	  91
  28	  92
  28	  95
  28	  96
  28	 101
  28	 102
  28	 104
  28	 106
  28	 108
  28	 115
  28	 119
  29	  31
  29	  32
  29	  36
  29	  38
  29	  40
  29	  47
  29	  48
  29	  57
  29	  58
  29	  63
  29	  65
  29	  70
  29	  73
  29	  80
  29	  83
  29	  85
  29	  88
  29	  93
  29	  95
  29	  96
  29	  97
  29	 101
  29	 102
  29	 104
  29	 105
  29	 111
  29	 114
  29	 117
  29	 119
  30	  31
  30	  34
  30	  35
  30	  37
  30	  43
  30	  48
  30	  49
  30	  53
  30	  54
  30	  57
  30	  63
  30	  65
  30	  67
  30	  78
  30	  79
  30	  86
  30	  87
  30	  89
  30	  91
  30	  92
  30	  93
  30	  95
  30	  96
  30	  97
  30	  98
  30	  99
  30	 100
  30	 103
  30	 104
  30	 105
  30	 106
  30	 115
  30	 117
  31	  32
  31	  37
  31	  38
  31	  40
  31	  47
  31	  49
  31	  51
  31	  58
  31	  60
  31	  62
  31	  63
  31	  67
  31	  68
  31	  69
  31	  70
  31	  79
  31	  80
  31	  88
  31	  93
  31	  94
  31	  97
  31	  99
  31	 102
  31	 108
  31	 109
  31	 113
  31	 115
  31	 119
  32	  36
  32	  43
  32	  59
  32	  60
  32	  61
  32	  64
  32	  67
  32	  68
  32	  69
  32	  73
  32	  74
  32	  76
  32	  79
  32	  81
  32	  86
  32	  90
  32	  91
  32	  92
  32	  94
  32	 100
  32	 105
  32	 107
  32	 109
  32	 113
  33	  36
  33	  40
  33	  42
  33	  44
  33	  45
  33	  47
  33	  54
  33	  57
  33	  59
  33	  67
  33	  71
  33	  74
  33	  75
  33	  76
  33	  80
  33	  81
  33	  92
  33	  93
  33	  98
  33	 101
  33	 104
  33	 114
  33	 117
  33	 119
  34	  45
  34	  46
  34	  54
  34	  68
  34	  69
  34	  73
  34	  74
  34	  76
  34	  81
  34	  82
  34	  83
  34	  84
  34	  92
  34	  95
  34	  99
  34	 102
  34	 105
  34	 108
  34	 109
  34	 112
  34	 114
  34	 115
  34	 116
  35	  38
  35	  40
  35	  42
  35	  43
  35	  45
  35	  49
  35	  57
  35	  58
  35	  64
  35	  66
  35	  69
  35	  73
  35	  76
  35	  80
  35	  85
  35	  88
  35	  90
  35	  98
  35	 101
  35	 103
  35	 106
  35	 108
  35	 110
  35	 113
  35	 114
  35	 117
  35	 118
  36	  38
  36	  41
  36	  42
  36	  46
  36	  47
  36	  49
  36	  50
  36	  53
  36	  58
  36	  60
  36	  61
  36	  63
  36	  67
  36	  70
  36	  72
  36	  78
  36	  79
  36	  81
  36	  83
  36	  84
  36	  86
  36	  89
  36	  90
  36	  92
  36	 102
  36	 105
  36	 107
  36	 108
  36	 110
  36	 113
  37	  38
  37	  46
  37	  48
  37	  52
  37	  53
  37	  55
  37	  57
  37	  61
  37	  62
  37	  67
  37	  71
  37	  81
  37	  86
  37	  87
  37	  91
  37	  95
  37	 100
  37	 104
  37	 109
  37	 110
  37	 112
  37	 119
  38	  40
  38	  41
  38	  42
  38	  43
  38	  44
  38	  48
  38	  49
  38	  51
  38	  54
  38	  56
  38	  58
  38	  59
  38	  61
  38	  62
  38	  65
  38	  66
  38	  69
  38	  70
  38	  72
  38	  78
  38	  79
  38	  84
  38	  86
  38	  88
  38	  94
  38	  97
  38	  98
  38	 102
  38	 103
  38	 104
  38	 106
  38	 107
  38	 116
  38	 118
  39	  43
  39	  52
  39	  54
  39	  55
  39	  57
  39	  59
  39	  60
  39	  61
  39	  67
  39	  75
  39	  76
  39	  77
  39	  80
  39	  84
  39	  87
  39	  88
  39	  90
  39	  93
  39	  95
  39	 101
  39	 108
  39	 110
  39	 119
  40	  43
  40	  45
  40	  48
  40	  59
  40	  60
  40	  61
  40	  63
  40	  64
  40	  67
  40	  68
  40	  71
  40	  73
  40	  80
  40	  88
  40	  89
  40	  90
  40	 100
  40	 102
  40	 103
  40	 104
  40	 108
  40	 116
  40	 117
  41	  47
  41	  51
  41	  53
  41	  57
  41	  60
  41	  68
  41	  70
  41	  72
  41	  76
  41	  78
  41	  81
  41	  83
  41	  85
  41	  86
  41	  91
  41	  93
  41	  95
  41	  96
  41	  98
  41	 100
  41	 103
  41	 106
  41	 107
  41	 110
  41	 111
  42	  43
  42	  50
  42	  51
  42	  54
  42	  60
  42	  63
  42	  71
  42	  72
  42	  73
  42	  75
  42	  80
  42	  82
  42	  83
  42	  84
  42	  85
  42	  91
  42	  92
  42	  93
  42	  95
  42	  97
  42	 101
  42	 106
  42	 108
  42	 110
  42	 115
  42	 118
  43	  44
  43	  47
  43	  48
  43	  51
  43	  55
  43	  56
  43	  57
  43	  63
  43	  64
  43	  66
  43	  68
  43	  78
  43	  80
  43	  81
  43	  85
  43	  86
  43	  94
  43	  95
  43	  96
  43	  99
  43	 103
  43	 106
  43	 108
  43	 111
  43	 115
  44	  45
  44	  51
  44	  56
  44	  59
  44	  61
  44	  65
  44	  69
  44	  74
  44	  75
  44	  83
  44	  89
  44	  90
  44	  91
  44	  93
  44	  96
  44	 100
  44	 102
  44	 103
  44	 109
  44	 114
  45	  53
  45	  59
  45	  68
  45	  74
  45	  79
  45	  81
  45	  95
  45	  96
  45	 100
  45	 106
  45	 110
  45	 113
  45	 114
  45	 115
  45	 118
  46	  48
  46	  51
  46	  53
  46	  56
  46	  59
  46	  69
  46	  74
  46	  77
  46	  78
  46	  80
  46	  82
  46	  88
  46	  89
  46	  91
  46	  94
  46	 100
  46	 102
  46	 105
  46	 106
  46	 107
  46	 114
  46	 115
  46	 118
  47	  49
  47	  57
  47	  63
  47	  64
  47	  70
  47	  73
  47	  75
  47	  77
  47	  81
  47	  85
  47	  88
  47	  90
  47	  92
  47	  93
  47	  94
  47	  96
  47	  97
  47	  98
  47	 103
  47	 105
  47	 108
  47	 110
  47	 118
  48	  50
  48	  52
  48	  56
  48	  57
  48	  58
  48	  60
  48	  61
  48	  64
  48	  66
  48	  67
  48	  73
  48	  74
  48	  75
  48	  77
  48	  80
  48	  86
  48	  88
  48	  90
  48	  94
  48	  99
  48	 104
  49	  58
  49	  61
  49	  62
  49	  64
  49	  68
  49	  73
  49	  75
  49	  76
  49	  82
  49	  84
  49	  92
  49	  93
  49	  94
  49	  95
  49	  96
  49	  97
  49	  99
  49	 100
  49	 102
  49	 103
  49	 109
  49	 119
  50	  52
  50	  53
  50	  54
  50	  57
  50	  59
  50	  60
  50	  64
  50	  67
  50	  68
  50	  83
  50	  84
  50	  89
  50	  91
  50	  95
  50	  97
  50	 103
  50	 104
  50	 105
  50	 108
  50	 109
  50	 110
  50	 111
  50	 112
  50	 114
  50	 119
  51	  57
  51	  61
  51	  64
  51	  67
  51	  68
  51	  71
  51	  73
  51	  79
  51	  89
  51	  99
  51	 101
  51	 108
  51	 110
  51	 114
  51	 116
  52	  53
  52	  57
  52	  59
  52	  60
  52	  63
  52	  64
  52	  66
  52	  74
  52	  80
  52	  87
  52	  88
  52	  90
  52	  94
  52	  96
  52	 102
  52	 109
  52	 110
  52	 111
  52	 113
  52	 115
  53	  60
  53	  62
  53	  67
  53	  70
  53	  76
  53	  81
  53	  83
  53	  86
  53	  90
  53	  92
  53	  97
  53	 108
  53	 113
  53	 114
  54	  57
  54	  58
  54	  63
  54	  66
  54	  67
  54	  69
  54	  73
  54	  80
  54	  84
  54	  88
  54	  99
  54	 103
  54	 105
  54	 108
  54	 113
  54	 114
  54	 116
  55	  58
  55	  63
  55	  66
  55	  67
  55	  69
  55	  70
  55	  81
  55	  82
  55	  87
  55	  88
  55	  89
  55	  91
  55	  94
  55	  96
  55	  97
  55	  99
  55	 105
  55	 106
  55	 109
  55	 110
  55	 111
  55	 113
  55	 118
  56	  57
  56	  60
  56	  67
  56	  71
  56	  75
  56	  79
  56	  80
  56	  81
  56	  83
  56	  87
  56	  88
  56	  90
  56	  93
  56	  96
  56	 100
  56	 102
  56	 104
  56	 105
  56	 113
  56	 114
  56	 116
  56	 119
  57	  61
  57	  62
  57	  66
  57	  67
  57	  69
  57	  77
  57	  79
  57	  82
  57	  90
  57	 106
  57	 113
  57	 117
  58	  59
  58	  63
  58	  64
  58	  65
  58	  77
  58	  79
  58	  80
  58	  81
  58	  93
  58	  95
  58	  97
  58	  99
  58	 101
  58	 105
  58	 110
  58	 116
  59	  63
  59	  64
  59	  68
  59	  69
  59	  70
  59	  71
  59	  74
  59	  82
  59	  85
  59	  87
  59	  89
  59	  98
  59	 100
  59	 103
  59	 111
  59	 113
  59	 115
  59	 116
  59	 118
  60	  62
  60	  63
  60	  67
  60	  69
  60	  70
  60	  73
  60	  74
  60	  77
  60	  78
  60	  80
  60	  82
  60	  85
  60	  88
  60	  92
  60	  93
  60	  96
  60	 104
  60	 107
  60	 109
  61	  63
  61	  64
  61	  65
  61	  67
  61	  75
  61	  77
  61	  85
  61	  86
  61	  88
  61	  89
  61	  91
  61	  95
  61	  99
  61	 105
  61	 106
  61	 108
  61	 117
  61	 118
  62	  72
  62	  77
  62	  78
  62	  79
  62	  81
  62	  86
  62	  92
  62	  96
  62	  98
  62	  99
  62	 102
  62	 104
  62	 107
  62	 111
  62	 112
  63	  66
  63	  67
  63	  69
  63	  70
  63	  81
  63	  85
  63	  88
  63	  89
  63	  90
  63	  92
  63	  97
  63	 103
  63	 112
  63	 115
  63	 118
  63	 119
  64	  69
  64	  76
  64	  77
  64	  82
  64	  85
  64	  89
  64	  91
  64	  92
  64	  93
  64	 100
  64	 101
  64	 102
  64	 113
  64	 114
  64	 115
  65	  67
  65	  70
  65	  71
  65	  80
  65	  84
  65	  86
  65	  89
  65	  93
  65	 104
  65	 111
  65	 115
  66	  72
  66	  73
  66	  79
  66	  83
  66	  88
  66	  90
  66	 103
  66	 108
  66	 110
  66	 113
  66	 117
  67	  71
  67	  74
  67	  82
  67	  85
  67	  88
  67	  89
  67	  91
  67	  94
  67	  96
  67	  97
  67	 105
  67	 109
  67	 110
  67	 113
  67	 114
  67	 119
  68	  73
  68	  75
  68	  80
  68	  84
  68	  88
  68	  91
  68	  94
  68	  96
  68	  97
  68	  99
  68	 104
  68	 111
  69	  73
  69	  74
  69	  76
  69	  77
  69	  82
  69	  84
  69	  85
  69	  92
  69	  93
  69	  95
  69	  98
  69	 102
  69	 104
  69	 105
  69	 107
  69	 109
  70	  72
  70	  82
  70	  83
  70	  84
  70	  85
  70	  90
  70	  93
  70	  99
  70	 102
  70	 103
  70	 106
  70	 107
  70	 109
  70	 110
  70	 114
  70	 116
  70	 118
  71	  72
  71	  78
  71	  82
  71	  88
  71	  90
  71	  94
  71	  96
  71	  98
  71	  99
  71	 100
  71	 101
  71	 102
  71	 108
  71	 109
  71	 110
  71	 112
  71	 113
  71	 118
  72	  76
  72	  83
  72	  84
  72	  91
  72	  93
  72	  94
  72	  95
  72	  96
  72	  99
  72	 100
  72	 105
  72	 107
  72	 108
  72	 117
  73	  75
  73	  76
  73	  77
  73	  80
  73	  83
  73	  84
  73	  87
  73	  88
  73	  92
  73	 101
  73	 105
  73	 107
  73	 109
  73	 112
  73	 114
  73	 118
  74	  76
  74	  81
  74	  82
  74	  83
  74	  89
  74	  90
  74	  91
  74	  95
  74	 102
  74	 112
  74	 113
  74	 114
  74	 117
  74	 118
  75	  83
  75	  84
  75	  87
  75	  88
  75	  92
  75	  94
  75	 101
  75	 102
  75	 103
  75	 109
  75	 119
  76	  78
  76	  79
  76	  80
  76	  82
  76	  90
  76	  91
  76	  92
  76	  94
  76	  98
  76	  99
  76	 101
  76	 109
  76	 115
  76	 116
  77	  78
  77	  81
  77	  84
  77	  87
  77	  92
  77	  93
  77	  97
  77	 101
  77	 104
  77	 107
  77	 114
  77	 116
  77	 119
  78	  79
  78	  84
  78	  86
  78	  88
  78	  90
  78	  92
  78	  93
  78	  99
  78	 100
  78	 101
  78	 104
  78	 108
  78	 113
  79	  80
  79	  81
  79	  83
  79	  89
  79	  90
  79	  91
  79	  93
  79	  94
  79	  98
  79	  99
  79	 101
  79	 111
  79	 112
  80	  92
  80	  94
  80	  97
  80	  98
  80	 109
  80	 110
  80	 111
  80	 112
  80	 114
  80	 116
  81	  83
  81	  96
  81	  97
  81	  98
  81	  99
  81	 100
  81	 102
  81	 106
  81	 107
  81	 108
  81	 110
  81	 111
  81	 116
  81	 119
  82	  83
  82	  90
  82	  96
  82	  97
  82	  98
  82	 102
  82	 103
  82	 111
  82	 112
  82	 114
  82	 118
  82	 119
  83	  84
  83	  85
  83	  88
  83	  92
  83	  98
  83	 101
  83	 110
  83	 111
  83	 119
  84	  85
  84	  89
  84	 105
  84	 107
  84	 111
  84	 116
  85	  87
  85	  88
  85	  93
  85	  96
  85	 107
  85	 109
  85	 112
  85	 114
  86	  87
  86	  90
  86	  91
  86	  94
  86	  97
  86	  98
  86	 102
  86	 107
  86	 112
  87	  91
  87	  96
  87	  97
  87	 101
  87	 102
  87	 105
  87	 106
  87	 108
  87	 112
  87	 118
  88	  91
  88	  92
  88	  94
  88	 100
  88	 103
  88	 104
  88	 114
  88	 117
  89	  90
  89	  91
  89	  92
  89	  93
  89	 103
  89	 108
  89	 111
  89	 112
  89	 113
  89	 115
  89	 117
  89	 118
  90	  92
  90	  93
  90	  94
  90	  96
  90	  98
  90	 101
  90	 102
  90	 104
  90	 106
  90	 114
  90	 116
  90	 119
  91	  92
  91	  96
  91	  97
  91	  99
  91	 102
  91	 104
  91	 108
  91	 112
  91	 117
  92	  97
  92	 101
  92	 104
  92	 106
  92	 107
  92	 108
  92	 110
  92	 114
  92	 117
  92	 118
  93	  94
  93	  96
  93	  97
  93	 100
  93	 103
  93	 104
  93	 107
  93	 109
  93	 113
  93	 116
  93	 118
  94	  97
  94	  99
  94	 102
  94	 107
  94	 108
  94	 111
  94	 114
  95	  96
  95	 101
  95	 102
  95	 113
  95	 116
  96	 105
  96	 110
  96	 112
  96	 117
  96	 118
  97	 104
  97	 105
  97	 109
  97	 112
  97	 113
  97	 117
  97	 118
  97	 119
  98	 101
  98	 108
  98	 109
  98	 110
  98	 112
  98	 113
  98	 119
  99	 103
  99	 104
  99	 108
  99	 109
  99	 110
  99	 111
  99	 113
  99	 117
  99	 118
 100	 103
 100	 107
 100	 112
 100	 113
 100	 114
 100	 115
 100	 118
 101	 102
 101	 106
 101	 111
 101	 114
 101	 117
 101	 119
 102	 104
 102	 108
 102	 109
 102	 113
 102	 117
 102	 118
 103	 104
 103	 105
 103	 106
 103	 109
 103	 111
 103	 113
 103	 114
 104	 106
 104	 108
 104	 113
 104	 119
 105	 108
 105	 111
 105	 115
 105	 116
 105	 117
 105	 119
 106	 116
 106	 117
 106	 118
 107	 108
 107	 109
 107	 111
 108	 110
 108	 114
 108	 116
 108	 118
 109	 110
 109	 112
 109	 113
 109	 117
 110	 115
 110	 117
 111	 113
 111	 116
 111	 118
 111	 119
 112	 113
 113	 115
 113	 119
 114	 116
 114	 118
 116	 118
 117	 118
 117	 119
 118	 119
;
